(set-logic QF_S)
(declare-fun var0 () Int)
(declare-fun var1 () String)
(declare-fun var2 () String)
(declare-fun var3 () Int)
(declare-fun var4 () Int)
(declare-fun var5 () Int)
(declare-fun var6 () String)
(declare-fun var7 () String)
(assert (<= (str.to.int (str.at "?~+~QQ,M" var0)) (str.len var1)))
(assert (<= (str.indexof (str.substr var2 var3 var4) (str.substr "40SQf" var5 var0) (str.len var6)) (str.len var7)))
(assert (>= (str.indexof var1 var6 var5) (str.indexof var2 var6 var4)))
(assert (> var5 var0))
(check-sat)